<number of tasks>
50

<cycle time>
1000

<order strength>
0.598


<task times>
1 40
2 74
3 93
4 213
5 481
6 267
7 149
8 81
9 320
10 224
11 141
12 107
13 209
14 222
15 174
16 193
17 40
18 86
19 482
20 241
21 518
22 279
23 292
24 530
25 26
26 557
27 135
28 126
29 160
30 476
31 63
32 188
33 177
34 40
35 201
36 133
37 118
38 474
39 548
40 454
41 126
42 338
43 39
44 285
45 52
46 247
47 127
48 71
49 28
50 277

<precedence relations>
1,5
2,6
3,7
4,7
5,8
6,9
7,10
7,11
7,12
7,13
8,14
9,15
10,17
11,18
12,16
12,19
12,20
13,19
13,20
14,21
15,25
16,23
17,26
18,24
19,22
19,25
19,26
19,27
20,25
20,26
20,27
21,29
22,28
23,30
24,30
25,30
25,31
25,32
25,33
26,30
26,31
26,32
26,33
27,30
27,31
27,32
27,33
28,35
29,34
30,35
30,36
30,37
30,38
31,35
31,36
31,37
31,38
32,35
32,36
32,37
32,38
33,35
33,36
33,37
33,38
34,40
35,39
35,40
35,41
36,39
36,40
36,41
37,39
37,40
37,41
38,39
38,40
38,41
39,42
39,43
39,44
40,43
40,46
41,43
41,44
42,45
43,48
43,50
44,46
44,47
44,48
45,49
46,49
46,50
47,50

<end>
